GLPSOL--GLPK LP/MIP Solver 5.0
Parameter(s) specified in the command line:
 --lp ../modeles/20_154.lp --log 20_154.log
Reading problem data from '../modeles/20_154.lp'...
3161 rows, 6200 columns, 21620 non-zeros
3080 integer variables, all of which are binary
9387 lines were read
GLPK Integer Optimizer 5.0
3161 rows, 6200 columns, 21620 non-zeros
3080 integer variables, all of which are binary
Preprocessing...
3080 constraint coefficient(s) were reduced
3161 rows, 6180 columns, 21600 non-zeros
3080 integer variables, all of which are binary
Scaling...
 A: min|aij| =  6.747e-04  max|aij| =  4.000e+00  ratio =  5.929e+03
GM: min|aij| =  1.140e-01  max|aij| =  8.775e+00  ratio =  7.700e+01
EQ: min|aij| =  1.299e-02  max|aij| =  1.000e+00  ratio =  7.700e+01
2N: min|aij| =  1.079e-02  max|aij| =  1.762e+00  ratio =  1.633e+02
Constructing initial basis...
Size of triangular part is 3161
Solving LP relaxation...
GLPK Simplex Optimizer 5.0
3161 rows, 6180 columns, 21600 non-zeros
      0: obj =   4.000000000e+01 inf =   9.950e+01 (41)
Perturbing LP to avoid stalling [199]...
    419: obj =  -2.864675610e-01 inf =   0.000e+00 (0)
Removing LP perturbation [1078]...
*  1078: obj =  -4.464858671e+00 inf =   3.017e-15 (0)
OPTIMAL LP SOLUTION FOUND
Integer optimization begins...
Long-step dual simplex will be used
+  1078: mip =     not found yet >=              -inf        (1; 0)
+  1106: >>>>>  -4.464858671e+00 >=  -4.464858671e+00 < 0.1% (21; 0)
+  1106: mip =  -4.464858671e+00 >=     tree is empty   0.0% (0; 41)
INTEGER OPTIMAL SOLUTION FOUND
Time used:   0.3 secs
Memory used: 8.9 Mb (9365264 bytes)
